c Sudoku solution
p cnf 729 0
178 0
196 0
227 0
375 0
383 0
392 0
187 0
439 0
468 0
535 0
549 0
573 0
623 0
654 0
689 0
748 0
766 0
782 0
795 0
485 0
822 0
841 0
859 0
863 0
757 0
993 0
815 0
125 0
299 0
888 0
916 0
876 0
586 0
945 0
964 0
952 0
981 0
665 0
551 0
153 0
443 0
456 0
636 0
326 0
246 0
358 0
255 0
284 0
271 0
262 0
144 0
347 0
132 0
642 0
567 0
512 0
472 0
677 0
417 0
774 0
897 0
979 0
834 0
937 0
928 0
314 0
331 0
119 0
161 0
369 0
729 0
421 0
618 0
524 0
494 0
691 0
598 0
711 0
733 0
213 0
238 0
